NAME : desafio_25
TYPE : TSP
DIMENSION : 25
EDGE_WEIGHT_TYPE : EUC_2D
NODE_COORD_SECTION
1 10 10
2 20 10
3 30 10
4 40 10
5 50 10
6 10 20
7 20 20
8 30 20
9 40 20
10 50 20
11 10 30
12 20 30
13 30 30
14 40 30
15 50 30
16 10 40
17 20 40
18 30 40
19 40 40
20 50 40
21 10 50
22 20 50
23 30 50
24 40 50
25 55 55
EOF